40
    58    88    19    14    45     9    28    62    58    95     9    82    81    12    93     5    21    79    91    64    17    68    92    95    32     6    63    38    62    70    48    36    26    93    72    35    76    59    35    83
     8     9     6     3     5    10     3     7     3     8     9     8     2     4     2     7     2     4     8     3     8     1     1     9     7     3     6     6     1     3     2     9     3     3     2     1     3     8     2     9
   325   384     0     0     0     0     0   139   168     0     0   226   195     0     0     0    37     0   103     0     0     0    70   134     0     0     0     0     0     0    47    23     0    84     0     0     0   399   369   377
